Si12                                    
   1.00000000000000     
     3.5404000000000000    0.0000000000000000    0.0000000000000000
    -1.7702000000000000   10.2943479999999994    0.0000000000000000
     0.0000000000000000    0.0000000000000000   27.5014290000000017
   P    Si
    12    12
Direct
  0.1140230000000031  0.2280450000000016  0.2331620701340000
  0.5140230000000017  0.2280450000000016  0.5149915888840013
  0.4580890000000011  0.9161789999999996  0.2093948231590019
  0.8580889999999997  0.9161789999999996  0.4912243419080013
  0.3108539999999991  0.6217090000000027  0.0841497850263977
  0.3108539999999991  0.6217090000000027  0.3659793037760011
  0.9992299999999972  0.9984600000000015  0.0863125447532980
  0.9992299999999972  0.9984600000000015  0.3681420635030008
  0.6549270000000007  0.3098540000000014  0.0604174849114969
  0.6549270000000007  0.3098540000000014  0.3422470036610008
  0.7697379999999967  0.5394750000000030  0.2072529188160033
  0.1697380000000024  0.5394750000000030  0.4890824375659975
  0.9397159999999971  0.8794329999999988  0.1578374946579970
  0.3397160000000028  0.8794329999999988  0.4396670134070035
  0.2051519999999982  0.4103029999999990  0.1857882190089981
  0.6051519999999968  0.4103029999999990  0.4676177377589994
  0.2018490000000028  0.4036990000000031  0.0996915556672988
  0.2018490000000028  0.4036990000000031  0.3815210744170017
  0.5638050000000021  0.1276099999999971  0.1077902087180007
  0.5638050000000021  0.1276099999999971  0.3896197274680020
  0.5671060000000026  0.1342119999999980  0.1938761625379968
  0.9671060000000011  0.1342119999999980  0.4757056812879981
  0.8292339999999996  0.6584679999999992  0.1357144410949971
  0.2292339999999982  0.6584679999999992  0.4175439598449984
 
  0.00000000E+00  0.00000000E+00  0.00000000E+00
  0.00000000E+00  0.00000000E+00  0.00000000E+00
  0.00000000E+00  0.00000000E+00  0.00000000E+00
  0.00000000E+00  0.00000000E+00  0.00000000E+00
  0.00000000E+00  0.00000000E+00  0.00000000E+00
  0.00000000E+00  0.00000000E+00  0.00000000E+00
  0.00000000E+00  0.00000000E+00  0.00000000E+00
  0.00000000E+00  0.00000000E+00  0.00000000E+00
  0.00000000E+00  0.00000000E+00  0.00000000E+00
  0.00000000E+00  0.00000000E+00  0.00000000E+00
  0.00000000E+00  0.00000000E+00  0.00000000E+00
  0.00000000E+00  0.00000000E+00  0.00000000E+00
  0.00000000E+00  0.00000000E+00  0.00000000E+00
  0.00000000E+00  0.00000000E+00  0.00000000E+00
  0.00000000E+00  0.00000000E+00  0.00000000E+00
  0.00000000E+00  0.00000000E+00  0.00000000E+00
  0.00000000E+00  0.00000000E+00  0.00000000E+00
  0.00000000E+00  0.00000000E+00  0.00000000E+00
  0.00000000E+00  0.00000000E+00  0.00000000E+00
  0.00000000E+00  0.00000000E+00  0.00000000E+00
  0.00000000E+00  0.00000000E+00  0.00000000E+00
  0.00000000E+00  0.00000000E+00  0.00000000E+00
  0.00000000E+00  0.00000000E+00  0.00000000E+00
  0.00000000E+00  0.00000000E+00  0.00000000E+00
