Mo1                                     
   1.00000000000000     
     3.1903170297389294    0.0000000000000000    0.0000000000000000
    -1.5951580149205469    2.7628967011971639    0.0000000000000000
     0.0000000000000000    0.0000000000000000   23.1428021737000016
   Mo   S 
     1     2
Direct
  0.6666669999999968  0.3333330000000032  0.4997356864449998
  0.3333330000000032  0.6666669999999968  0.4318838954958851
  0.3333330000000032  0.6666669999999968  0.5675844789851124
 
  0.00000000E+00  0.00000000E+00  0.00000000E+00
  0.00000000E+00  0.00000000E+00  0.00000000E+00
  0.00000000E+00  0.00000000E+00  0.00000000E+00
