Graphene                                
   1.00000000000000     
     2.4624956001091292    0.0000000011205455    0.0000000000000000
    -1.2312482981123491    2.1325840594752217    0.0000000000000000
     0.0000000000000000    0.0000000000000000   18.0000000000000000
   C 
     2
Direct
 -0.0000000000000000 -0.0000000000000000  0.1083760138888863
  0.3333333333333357  0.6666666666666643  0.1083760138888863
 
  0.00000000E+00  0.00000000E+00  0.00000000E+00
  0.00000000E+00  0.00000000E+00  0.00000000E+00
