O2
1.0
-2.362369 -0.002335 -2.364873
-2.362369 -0.002335 2.364873
2.002826 4.169935 0.000000
O
2
direct
0.062735 0.062735 0.147913 O
0.937265 0.937265 0.852087 O
