Fe1 Cl2
1.0
3.514159 0.000000 0.000000
-1.757079 3.043351 0.000000
0.000000 0.000000 6.181128
Fe Cl
1 2
direct
0.000000 0.000000 0.000000 Fe
0.666667 0.333333 0.772615 Cl
0.333333 0.666667 0.227385 Cl
