AGGAC = 0.0
ALGO = Fast
EDIFF = 0.0001
ENCUT = 500
GGA = Bo
IBRION = 2
ISIF = 3
ISMEAR = 1
ISPIN = 2
LAECHG = True
LCHARG = True
LREAL = Auto
LUSE_VDW = True
LVHAR = True
LVTOT = True
MAGMOM = 4*6.0 8*0.5
NPAR = 4
NSW = 50
PARAM1 = 0.1833333333
PARAM2 = 0.22
PREC = Accurate
SIGMA = 0.1
