Mo4 O8
1.0
4.749831 0.000004 -0.000004
0.000001 4.770657 -3.206184
0.000006 -0.048788 6.484374
Mo O
4 8
direct
0.499998 0.499997 0.249997 Mo
0.999998 0.000003 0.250003 Mo
0.500002 0.500003 0.750003 Mo
0.000002 0.999997 0.749997 Mo
0.198296 0.800917 0.400461 O
0.698299 0.699086 0.099541 O
0.801704 0.199083 0.599539 O
0.301701 0.300914 0.900459 O
0.801694 0.199070 0.099529 O
0.301691 0.300927 0.400469 O
0.198306 0.800930 0.900471 O
0.698309 0.699073 0.599531 O
