AEXX = 0.25
ALGO = D
EDIFF = 1e-06
ENCUT = 500
HFSCREEN = 0.2
IBRION = 2
ISIF = 3
ISMEAR = 1
LHFCALC = True
LORBIT = 11
LVHAR = True
LVTOT = True
LWAVE = True
NPAR = 8
NSW = 0
PREC = Accurate
SIGMA = 0.1
TIME = 0.4
