Automatically generated mesh
84
Reciprocal Lattice
    0.00000000000000    0.00000000000000    0.00000000000000             1
    0.07692307692308    0.00000000000000    0.00000000000000             6
    0.15384615384615    0.00000000000000    0.00000000000000             6
    0.23076923076923   -0.00000000000000    0.00000000000000             6
    0.30769230769231    0.00000000000000    0.00000000000000             6
    0.38461538461539   -0.00000000000000    0.00000000000000             6
    0.46153846153846   -0.00000000000000    0.00000000000000             6
    0.07692307692308    0.07692307692308    0.00000000000000             6
    0.15384615384615    0.07692307692308    0.00000000000000            12
    0.23076923076923    0.07692307692308    0.00000000000000            12
    0.30769230769231    0.07692307692308    0.00000000000000            12
    0.38461538461539    0.07692307692308    0.00000000000000            12
    0.46153846153846    0.07692307692308    0.00000000000000             6
    0.15384615384615    0.15384615384615    0.00000000000000             6
    0.23076923076923    0.15384615384615    0.00000000000000            12
    0.30769230769231    0.15384615384615    0.00000000000000            12
    0.38461538461538    0.15384615384615    0.00000000000000            12
    0.23076923076923    0.23076923076923    0.00000000000000             6
    0.30769230769231    0.23076923076923    0.00000000000000            12
    0.38461538461538    0.23076923076923    0.00000000000000             6
    0.30769230769231    0.30769230769231    0.00000000000000             6
0.0 0.0 0.0 0 \Gamma
0.0166666666667 0.0166666666667 0.0 0
0.0333333333333 0.0333333333333 0.0 0
0.05 0.05 0.0 0
0.0666666666666 0.0666666666666 0.0 0
0.0833333333333 0.0833333333333 0.0 0
0.0999999999999 0.0999999999999 0.0 0
0.116666666667 0.116666666667 0.0 0
0.133333333333 0.133333333333 0.0 0
0.15 0.15 0.0 0
0.166666666667 0.166666666667 0.0 0
0.183333333333 0.183333333333 0.0 0
0.2 0.2 0.0 0
0.216666666666 0.216666666666 0.0 0
0.233333333333 0.233333333333 0.0 0
0.25 0.25 0.0 0
0.266666666666 0.266666666666 0.0 0
0.283333333333 0.283333333333 0.0 0
0.3 0.3 0.0 0
0.316666666666 0.316666666666 0.0 0
0.333333333333 0.333333333333 0.0 0 K
0.333333333333 0.333333333333 0.0 0 K
0.341666666666 0.316666666666 0.0 0
0.35 0.3 0.0 0
0.358333333333 0.283333333333 0.0 0
0.366666666666 0.266666666666 0.0 0
0.375 0.25 0.0 0
0.383333333333 0.233333333333 0.0 0
0.391666666666 0.216666666666 0.0 0
0.4 0.2 0.0 0
0.408333333333 0.183333333333 0.0 0
0.416666666666 0.166666666666 0.0 0
0.425 0.15 0.0 0
0.433333333333 0.133333333333 0.0 0
0.441666666667 0.116666666667 0.0 0
0.45 0.0999999999999 0.0 0
0.458333333333 0.0833333333332 0.0 0
0.466666666667 0.0666666666666 0.0 0
0.475 0.0499999999999 0.0 0
0.483333333333 0.0333333333333 0.0 0
0.491666666667 0.0166666666666 0.0 0
0.5 0.0 0.0 0 M
0.5 0.0 0.0 0 M
0.475 0.0 0.0 0
0.45 0.0 0.0 0
0.425 0.0 0.0 0
0.4 0.0 0.0 0
0.375 0.0 0.0 0
0.35 0.0 0.0 0
0.325 0.0 0.0 0
0.3 0.0 0.0 0
0.275 0.0 0.0 0
0.25 0.0 0.0 0
0.225 0.0 0.0 0
0.2 0.0 0.0 0
0.175 0.0 0.0 0
0.15 0.0 0.0 0
0.125 0.0 0.0 0
0.1 0.0 0.0 0
0.075 0.0 0.0 0
0.05 0.0 0.0 0
0.025 0.0 0.0 0
0.0 0.0 0.0 0 \Gamma
