B2                                      
   1.00000000000000     
     2.5084530690657880    0.0000000000000000    0.0000000000000000
    -1.2542265345328940    2.1723846065015766    0.0000000000000000
     0.0000000000000000    0.0000000000000000   20.0000000000000000
   B    N 
     1     1
Direct
  0.3333330000000032  0.6666669999999968  0.2588408124999972
  0.6666669999999968  0.3333330000000032  0.2588408124999972
 
  0.00000000E+00  0.00000000E+00  0.00000000E+00
  0.00000000E+00  0.00000000E+00  0.00000000E+00
