Mo1 S2
1.0
-3.190644 0.000000 0.000000
1.595322 2.763178 0.000000
0.000000 0.000000 -23.130533
Mo S
1 2
direct
0.000000 0.000000 0.932331 Mo
0.666666 0.333332 0.864658 S
0.666666 0.333332 0.000000 S
