Mo1
1.00000000000000
3.1894836930207422 0.0000000000000000 0.0000000000000000 
-1.5947413466920439 2.7621750095656314 0.0000000000000000 
0.0000000000000000 0.0000000000000000 23.1428021737 
Mo S 
1 2 
Direct
0.6666669999999968 0.3333330000000032 0.499735686445
0.3333330000000032 0.6666669999999968 0.431833979001
0.3333330000000032 0.6666669999999968 0.56763439548
