Mo2 S4
1.0
3.190317 0.000000 0.000000
-1.595158 2.762897 0.000000
0.000000 0.000000 23.140492
Mo S Mo S
1 2 1 2
direct
0.666667 0.333333 0.067859 Mo
0.333333 0.666667 0.000000 S
0.333333 0.666667 0.135715 S
0.809524142857 0.619047285714 0.354823
0.476190142857 0.952381285714 0.286965
0.476190142857 0.952381285714 0.422679
