Line_mode KPOINTS file
20
Line_mode
Reciprocal
0.0 0.0 0.0 ! \Gamma
0.333333333333 0.333333333333 0.0 ! K

0.333333333333 0.333333333333 0.0 ! K
0.5 0.0 0.0 ! M

0.5 0.0 0.0 ! M
0.0 0.0 0.0 ! \Gamma

