Bi1 Te1 Cl1
1.0
4.277438 0.000000 0.000000
-2.138719 3.704370 0.000000
0.000000 0.000000 18.407854
Cl Te Bi
1 1 1
direct
-0.000000 0.000000 0.015666 Cl
0.666667 0.333333 0.201382 Te
0.333333 0.666667 0.104153 Bi
