N2H4
   1.00000000000000     
    13.0000000000000000    0.0000000000000000    0.0000000000000000
     0.0000000000000000   13.0000000000000000    0.0000000000000000
     0.0000000000000000    0.0000000000000000   13.0000000000000000
   N    H 
     2     4
Selective dynamics
Direct
  0.5549250832567330  0.5081682246691286  0.5031964956765177   T   T   T
  0.4450749167432669  0.4918317753308713  0.5031964956765177   T   T   T
  0.5822945623732353  0.5329551217129098  0.5736281051936132   T   T   T
  0.5893620436016659  0.4388381105394573  0.4865753991298632   T   T   T
  0.4177054376267647  0.4670448782870902  0.5736281051936132   T   T   T
  0.4106379563983341  0.5611618894605428  0.4865753991298632   T   T   T
 
 
