Zr Ga N                                 
   1.00000000000000     
3.2344788866898262    0.0000000008513099    0.0000000000000000
    1.6172399418741319    2.8011415457881732    0.0000000000000000
     0.0000000000000000    0.0000000000000000   39.6426436392713057
   Zr   
     8          
Selective dynamics
Direct
 0.6666666666666643  0.6666666666666643  0.0000000000000000   F   F   F
  0.0000000000000000  0.0000000000000000  0.0635774366030475   F   F   F
  0.6666666666666643  0.6666666666666643  0.1271548732060950   F   F   F
  0.0000000000000000  0.0000000000000000  0.1913586548510692   T   T   T
  0.6666666666666643  0.6666666666666643  0.2548936108101180   T   T   T
  0.0000000000000000  0.0000000000000000  0.3194618859510340   T   T   T
  0.6666666666666643  0.6666666666666643  0.3824547868263702   T   T   T
  0.0000000000000000  0.0000000000000000  0.4487296637741809   T   T   T


 
 

