Si6 P6
1.0
3.530570 0.000000 0.000000
-1.765285 10.283720 0.000000
0.000000 0.000000 19.729076
Si P
6 6
direct
0.828780 0.657560 0.485265 Si
0.940125 0.880250 0.514697 Si
0.564345 0.128689 0.445931 Si
0.567271 0.134542 0.565139 Si
0.204651 0.409303 0.554078 Si
0.201671 0.403342 0.434885 Si
0.000123 0.000247 0.415952 P
0.768858 0.537715 0.584088 P
0.655177 0.310354 0.380149 P
0.458575 0.917149 0.586072 P
0.310345 0.620690 0.413895 P
0.113803 0.227606 0.619850 P
