Si6                                     
   1.00000000000000     
     3.5403996707019432    0.0000000000000000    0.0000000000000000
    -1.7701998353509716   10.2943484832473846    0.0000000000000000
     0.0000000000000000    0.0000000000000000   24.7402421982999989
   P    Si
     6     6
Direct
  0.1140225143722684  0.2280450287445438  0.2591845087452622
  0.4580894233304355  0.9161788466608639  0.2327650581805707
  0.3108544722148286  0.6217089444296644  0.0935415009184538
  0.9992302175612682  0.9984604351225219  0.0959459427386093
  0.6549268142385859  0.3098536284771584  0.0671607465046847
  0.7697377128213615  0.5394754256427230  0.2303837713237672
  0.9397164023799983  0.8794328047599825  0.1754532358124548
  0.2051517414982022  0.4103034829964115  0.2065232112659692
  0.2018494457366323  0.4036988914732716  0.1108180831164424
  0.5638052163697662  0.1276104327395252  0.1198206127639046
  0.5671058670461200  0.1342117340922400  0.2155139180023619
  0.8292341724305444  0.6584683448610822  0.1508614170931223
 
  0.00000000E+00  0.00000000E+00  0.00000000E+00
  0.00000000E+00  0.00000000E+00  0.00000000E+00
  0.00000000E+00  0.00000000E+00  0.00000000E+00
  0.00000000E+00  0.00000000E+00  0.00000000E+00
  0.00000000E+00  0.00000000E+00  0.00000000E+00
  0.00000000E+00  0.00000000E+00  0.00000000E+00
  0.00000000E+00  0.00000000E+00  0.00000000E+00
  0.00000000E+00  0.00000000E+00  0.00000000E+00
  0.00000000E+00  0.00000000E+00  0.00000000E+00
  0.00000000E+00  0.00000000E+00  0.00000000E+00
  0.00000000E+00  0.00000000E+00  0.00000000E+00
  0.00000000E+00  0.00000000E+00  0.00000000E+00
