Mo2 S4
1.0
3.190317 0.000000 0.000000
-1.595158 2.762897 0.000000
0.000000 0.000000 23.140492
Mo S Mo S
1 2 1 2
direct
0.666667 0.333333 0.067859 Mo
0.333333 0.666667 0.000000 S
0.333333 0.666667 0.135715 S
0.952381 1.047619 0.322412 Mo
0.619047 1.380953 0.254554 S
0.619047 1.380953 0.390268 S
