Si12
1.0
3.540400 0.000000 0.000000 
-1.770200 10.294348 0.000000 
0.000000 0.000000 27.501429 
P Si 
12 12 
direct
0.114023 0.228045 0.233162070134
0.214023 0.328045 0.514991588884
0.458089 0.916179 0.209394823159
0.558089 1.016179 0.491224341908
0.310854 0.621709 0.0841497850264
0.310854 0.621709 0.365979303776
0.999230 0.998460 0.0863125447533
0.999230 0.998460 0.368142063503
0.654927 0.309854 0.0604174849115
0.654927 0.309854 0.342247003661
0.769738 0.539475 0.207252918816
0.869738 0.639475 0.489082437566
0.939716 0.879433 0.157837494658
1.039716 0.979433 0.439667013407
0.205152 0.410303 0.185788219009
0.305152 0.510303 0.467617737759
0.201849 0.403699 0.0996915556673
0.201849 0.403699 0.381521074417
0.563805 0.127610 0.107790208718
0.563805 0.127610 0.389619727468
0.567106 0.134212 0.193876162538
0.667106 0.234212 0.475705681288
0.829234 0.658468 0.135714441095
0.929234 0.758468 0.417543959845
