AGGAC = 0.0
EDIFF = 1e-06
ENCUT = 300
GGA = Bo
IBRION = 2
ISIF = 3
ISMEAR = 0
LAECHG = False
LCHARG = False
LREAL = Auto
LUSE_VDW = True
LWAVE = False
NPAR = 4
NSW = 0
PARAM1 = 0.1833333333
PARAM2 = 0.22
PREC = Accurate
SIGMA = 0.1
