Fe1
1.0
2.325477 0.000000 -0.822180
-1.162738 2.013922 -0.822180
0.000000 0.000000 2.466541
Fe
1
direct
0.000000 0.000000 0.000000 Fe
