ALGO = Fast
EDIFF = 1e-06
ENCUT = 350
IBRION = -1
ICHARG = 11
ISIF = 3
ISMEAR = -5
ISPIN = 1
LAECHG = True
LORBIT = 11
LREAL = False
LWAVE = True
NELM = 100
NELMIN = 5
NSW = 0
PREC = Accurate
SIGMA = 0.05
