Al4                                     
   1.0000000000000000     
     4.0456733457257306   -0.0000000000000000    0.0000000000000000
     0.0000000000000000    4.0456733457257306   -0.0000000000000000
    -0.0000000000000000   -0.0000000000000000    4.0456733457257306
   Al
     4
Direct
 -0.0000000000000000  0.0000000000000000 -0.0000000000000000
  0.0000000000000000  0.5000000000000000  0.5000000000000000
  0.5000000000000000 -0.0000000000000000  0.5000000000000000
  0.5000000000000000  0.5000000000000000 -0.0000000000000000

  0.00000000E+00  0.00000000E+00  0.00000000E+00
  0.00000000E+00  0.00000000E+00  0.00000000E+00
  0.00000000E+00  0.00000000E+00  0.00000000E+00
  0.00000000E+00  0.00000000E+00  0.00000000E+00
