Bi2 Te2 Cl2 plus 4.2662086121           
   1.00000000000000     
     4.2774380719471328    0.0000000000000000    0.0000000000000000
    -2.1387185389430030    3.7043697864958243    0.0000000000000000
     0.0000000000000000    0.0000000000000000   18.4078536120999985
   Cl   Te   Bi
     1     1     1
Direct
 -0.0000000000000000  0.0000000000000000  0.0156655683660676
  0.6666669999999968  0.3333330000000032  0.2013817395193315
  0.3333330000000032  0.6666669999999968  0.1041529665975059
 
  0.00000000E+00  0.00000000E+00  0.00000000E+00
  0.00000000E+00  0.00000000E+00  0.00000000E+00
  0.00000000E+00  0.00000000E+00  0.00000000E+00
