Bi2 Te2 Cl2
1.0
4.302993 0.000000 0.000000
-2.151496 3.726501 0.000000
0.000000 0.000000 14.141645
Cl Te Bi
2 2 2
direct
0.000000 0.000000 0.020324 Cl
0.000000 0.000000 0.520324 Cl
0.666667 0.333333 0.261304 Te
0.333333 0.666667 0.761304 Te
0.333333 0.666667 0.136471 Bi
0.666667 0.333333 0.636471 Bi
