Mo1                                     
   1.00000000000000     
     1.5982047152872734   -2.7681710047266566    0.0000000000000000
     1.5982047152872734    2.7681710047266566    0.0000000000000000
     0.0000000000000000    0.0000000000000000   23.1305328679999995
   Mo   S 
     1     2
Direct
  0.0000000000000000 -0.0000000000000000  0.0676690062373027
  0.3333340000000007  0.6666659999999993  0.1355390075114930
  0.3333340000000007  0.6666659999999993 -0.0001969950364928
 
  0.00000000E+00  0.00000000E+00  0.00000000E+00
  0.00000000E+00  0.00000000E+00  0.00000000E+00
  0.00000000E+00  0.00000000E+00  0.00000000E+00
