H6 Pb1 C4 O4
1.0
25.000000 0.000000 0.000000
0.000000 25.000000 0.000000
0.000000 0.000000 25.000000
H Pb C O
6 1 4 4
direct
0.344298 0.574990 0.458736 H
0.344016 0.538686 0.519711 H
0.344016 0.504053 0.456771 H
0.658514 0.569127 0.461964 H
0.656189 0.532861 0.522917 H
0.656190 0.498228 0.459978 H
0.499663 0.478009 0.512100 Pb
0.358910 0.538852 0.478621 C
0.418651 0.537737 0.479235 C
0.642158 0.533567 0.481530 C
0.582418 0.534682 0.480917 C
0.440781 0.580712 0.455588 O
0.446419 0.502583 0.498579 O
0.562396 0.578442 0.456837 O
0.552966 0.500595 0.499673 O
