Pb368 S368
1.0
-0.000000 24.012916 18.009687
-0.000000 -6.003229 30.016145
42.022603 -0.000000 -0.000000
Pb S
368 368
direct
0.956522 0.826087 0.750000 Pb
0.913043 0.652174 0.750000 Pb
0.869565 0.478261 0.750000 Pb
0.826087 0.304348 0.750000 Pb
0.782609 0.130435 0.750000 Pb
0.739130 0.956522 0.750000 Pb
0.695652 0.782609 0.750000 Pb
0.652174 0.608696 0.750000 Pb
0.608696 0.434783 0.750000 Pb
0.565217 0.260870 0.750000 Pb
0.521739 0.086957 0.750000 Pb
0.478261 0.913043 0.750000 Pb
0.434783 0.739130 0.750000 Pb
0.391304 0.565217 0.750000 Pb
0.347826 0.391304 0.750000 Pb
0.304348 0.217391 0.750000 Pb
0.260870 0.043478 0.750000 Pb
0.217391 0.869565 0.750000 Pb
0.173913 0.695652 0.750000 Pb
0.130435 0.521739 0.750000 Pb
0.086957 0.347826 0.750000 Pb
0.043478 0.173913 0.750000 Pb
0.000000 0.000000 0.750000 Pb
0.826087 0.804348 0.750000 Pb
0.782609 0.630435 0.750000 Pb
0.739130 0.456522 0.750000 Pb
0.695652 0.282609 0.750000 Pb
0.652174 0.108696 0.750000 Pb
0.608696 0.934783 0.750000 Pb
0.565217 0.760870 0.750000 Pb
0.521739 0.586957 0.750000 Pb
0.478261 0.413043 0.750000 Pb
0.434783 0.239130 0.750000 Pb
0.391304 0.065217 0.750000 Pb
0.347826 0.891304 0.750000 Pb
0.304348 0.717391 0.750000 Pb
0.260870 0.543478 0.750000 Pb
0.217391 0.369565 0.750000 Pb
0.173913 0.195652 0.750000 Pb
0.130435 0.021739 0.750000 Pb
0.086957 0.847826 0.750000 Pb
0.043478 0.673913 0.750000 Pb
1.000000 0.500000 0.750000 Pb
0.956522 0.326087 0.750000 Pb
0.913043 0.152174 0.750000 Pb
0.869565 0.978261 0.750000 Pb
0.934783 0.739130 0.678571 Pb
0.891304 0.565217 0.678571 Pb
0.847826 0.391304 0.678571 Pb
0.804348 0.217391 0.678571 Pb
0.760870 0.043478 0.678571 Pb
0.717391 0.869565 0.678571 Pb
0.673913 0.695652 0.678571 Pb
0.630435 0.521739 0.678571 Pb
0.586957 0.347826 0.678571 Pb
0.543478 0.173913 0.678571 Pb
0.500000 1.000000 0.678571 Pb
0.456522 0.826087 0.678571 Pb
0.413043 0.652174 0.678571 Pb
0.369565 0.478261 0.678571 Pb
0.326087 0.304348 0.678571 Pb
0.282609 0.130435 0.678571 Pb
0.239130 0.956522 0.678571 Pb
0.195652 0.782609 0.678571 Pb
0.152174 0.608696 0.678571 Pb
0.108696 0.434783 0.678571 Pb
0.065217 0.260870 0.678571 Pb
0.021739 0.086957 0.678571 Pb
0.978261 0.913043 0.678571 Pb
0.847826 0.891304 0.678571 Pb
0.804348 0.717391 0.678571 Pb
0.760870 0.543478 0.678571 Pb
0.717391 0.369565 0.678571 Pb
0.673913 0.195652 0.678571 Pb
0.630435 0.021739 0.678571 Pb
0.586957 0.847826 0.678571 Pb
0.543478 0.673913 0.678571 Pb
0.500000 0.500000 0.678571 Pb
0.456522 0.326087 0.678571 Pb
0.413043 0.152174 0.678571 Pb
0.369565 0.978261 0.678571 Pb
0.326087 0.804348 0.678571 Pb
0.282609 0.630435 0.678571 Pb
0.239130 0.456522 0.678571 Pb
0.195652 0.282609 0.678571 Pb
0.152174 0.108696 0.678571 Pb
0.108696 0.934783 0.678571 Pb
0.065217 0.760870 0.678571 Pb
0.021739 0.586957 0.678571 Pb
0.978261 0.413043 0.678571 Pb
0.934783 0.239130 0.678571 Pb
0.891304 0.065217 0.678571 Pb
0.956522 0.826087 0.607143 Pb
0.913043 0.652174 0.607143 Pb
0.869565 0.478261 0.607143 Pb
0.826087 0.304348 0.607143 Pb
0.782609 0.130435 0.607143 Pb
0.739130 0.956522 0.607143 Pb
0.695652 0.782609 0.607143 Pb
0.652174 0.608696 0.607143 Pb
0.608696 0.434783 0.607143 Pb
0.565217 0.260870 0.607143 Pb
0.521739 0.086957 0.607143 Pb
0.478261 0.913043 0.607143 Pb
0.434783 0.739130 0.607143 Pb
0.391304 0.565217 0.607143 Pb
0.347826 0.391304 0.607143 Pb
0.304348 0.217391 0.607143 Pb
0.260870 0.043478 0.607143 Pb
0.217391 0.869565 0.607143 Pb
0.173913 0.695652 0.607143 Pb
0.130435 0.521739 0.607143 Pb
0.086957 0.347826 0.607143 Pb
0.043478 0.173913 0.607143 Pb
0.000000 0.000000 0.607143 Pb
0.826087 0.804348 0.607143 Pb
0.782609 0.630435 0.607143 Pb
0.739130 0.456522 0.607143 Pb
0.695652 0.282609 0.607143 Pb
0.652174 0.108696 0.607143 Pb
0.608696 0.934783 0.607143 Pb
0.565217 0.760870 0.607143 Pb
0.521739 0.586957 0.607143 Pb
0.478261 0.413043 0.607143 Pb
0.434783 0.239130 0.607143 Pb
0.391304 0.065217 0.607143 Pb
0.347826 0.891304 0.607143 Pb
0.304348 0.717391 0.607143 Pb
0.260870 0.543478 0.607143 Pb
0.217391 0.369565 0.607143 Pb
0.173913 0.195652 0.607143 Pb
0.130435 0.021739 0.607143 Pb
0.086957 0.847826 0.607143 Pb
0.043478 0.673913 0.607143 Pb
1.000000 0.500000 0.607143 Pb
0.956522 0.326087 0.607143 Pb
0.913043 0.152174 0.607143 Pb
0.869565 0.978261 0.607143 Pb
0.934783 0.739130 0.535714 Pb
0.891304 0.565217 0.535714 Pb
0.847826 0.391304 0.535714 Pb
0.804348 0.217391 0.535714 Pb
0.760870 0.043478 0.535714 Pb
0.717391 0.869565 0.535714 Pb
0.673913 0.695652 0.535714 Pb
0.630435 0.521739 0.535714 Pb
0.586957 0.347826 0.535714 Pb
0.543478 0.173913 0.535714 Pb
0.500000 1.000000 0.535714 Pb
0.456522 0.826087 0.535714 Pb
0.413043 0.652174 0.535714 Pb
0.369565 0.478261 0.535714 Pb
0.326087 0.304348 0.535714 Pb
0.282609 0.130435 0.535714 Pb
0.239130 0.956522 0.535714 Pb
0.195652 0.782609 0.535714 Pb
0.152174 0.608696 0.535714 Pb
0.108696 0.434783 0.535714 Pb
0.065217 0.260870 0.535714 Pb
0.021739 0.086957 0.535714 Pb
0.978261 0.913043 0.535714 Pb
0.847826 0.891304 0.535714 Pb
0.804348 0.717391 0.535714 Pb
0.760870 0.543478 0.535714 Pb
0.717391 0.369565 0.535714 Pb
0.673913 0.195652 0.535714 Pb
0.630435 0.021739 0.535714 Pb
0.586957 0.847826 0.535714 Pb
0.543478 0.673913 0.535714 Pb
0.500000 0.500000 0.535714 Pb
0.456522 0.326087 0.535714 Pb
0.413043 0.152174 0.535714 Pb
0.369565 0.978261 0.535714 Pb
0.326087 0.804348 0.535714 Pb
0.282609 0.630435 0.535714 Pb
0.239130 0.456522 0.535714 Pb
0.195652 0.282609 0.535714 Pb
0.152174 0.108696 0.535714 Pb
0.108696 0.934783 0.535714 Pb
0.065217 0.760870 0.535714 Pb
0.021739 0.586957 0.535714 Pb
0.978261 0.413043 0.535714 Pb
0.934783 0.239130 0.535714 Pb
0.891304 0.065217 0.535714 Pb
0.956522 0.826087 0.464286 Pb
0.913043 0.652174 0.464286 Pb
0.869565 0.478261 0.464286 Pb
0.826087 0.304348 0.464286 Pb
0.782609 0.130435 0.464286 Pb
0.739130 0.956522 0.464286 Pb
0.695652 0.782609 0.464286 Pb
0.652174 0.608696 0.464286 Pb
0.608696 0.434783 0.464286 Pb
0.565217 0.260870 0.464286 Pb
0.521739 0.086957 0.464286 Pb
0.478261 0.913043 0.464286 Pb
0.434783 0.739130 0.464286 Pb
0.391304 0.565217 0.464286 Pb
0.347826 0.391304 0.464286 Pb
0.304348 0.217391 0.464286 Pb
0.260870 0.043478 0.464286 Pb
0.217391 0.869565 0.464286 Pb
0.173913 0.695652 0.464286 Pb
0.130435 0.521739 0.464286 Pb
0.086957 0.347826 0.464286 Pb
0.043478 0.173913 0.464286 Pb
0.000000 0.000000 0.464286 Pb
0.826087 0.804348 0.464286 Pb
0.782609 0.630435 0.464286 Pb
0.739130 0.456522 0.464286 Pb
0.695652 0.282609 0.464286 Pb
0.652174 0.108696 0.464286 Pb
0.608696 0.934783 0.464286 Pb
0.565217 0.760870 0.464286 Pb
0.521739 0.586957 0.464286 Pb
0.478261 0.413043 0.464286 Pb
0.434783 0.239130 0.464286 Pb
0.391304 0.065217 0.464286 Pb
0.347826 0.891304 0.464286 Pb
0.304348 0.717391 0.464286 Pb
0.260870 0.543478 0.464286 Pb
0.217391 0.369565 0.464286 Pb
0.173913 0.195652 0.464286 Pb
0.130435 0.021739 0.464286 Pb
0.086957 0.847826 0.464286 Pb
0.043478 0.673913 0.464286 Pb
1.000000 0.500000 0.464286 Pb
0.956522 0.326087 0.464286 Pb
0.913043 0.152174 0.464286 Pb
0.869565 0.978261 0.464286 Pb
0.934783 0.739130 0.392857 Pb
0.891304 0.565217 0.392857 Pb
0.847826 0.391304 0.392857 Pb
0.804348 0.217391 0.392857 Pb
0.760870 0.043478 0.392857 Pb
0.717391 0.869565 0.392857 Pb
0.673913 0.695652 0.392857 Pb
0.630435 0.521739 0.392857 Pb
0.586957 0.347826 0.392857 Pb
0.543478 0.173913 0.392857 Pb
0.500000 1.000000 0.392857 Pb
0.456522 0.826087 0.392857 Pb
0.413043 0.652174 0.392857 Pb
0.369565 0.478261 0.392857 Pb
0.326087 0.304348 0.392857 Pb
0.282609 0.130435 0.392857 Pb
0.239130 0.956522 0.392857 Pb
0.195652 0.782609 0.392857 Pb
0.152174 0.608696 0.392857 Pb
0.108696 0.434783 0.392857 Pb
0.065217 0.260870 0.392857 Pb
0.021739 0.086957 0.392857 Pb
0.978261 0.913043 0.392857 Pb
0.847826 0.891304 0.392857 Pb
0.804348 0.717391 0.392857 Pb
0.760870 0.543478 0.392857 Pb
0.717391 0.369565 0.392857 Pb
0.673913 0.195652 0.392857 Pb
0.630435 0.021739 0.392857 Pb
0.586957 0.847826 0.392857 Pb
0.543478 0.673913 0.392857 Pb
0.500000 0.500000 0.392857 Pb
0.456522 0.326087 0.392857 Pb
0.413043 0.152174 0.392857 Pb
0.369565 0.978261 0.392857 Pb
0.326087 0.804348 0.392857 Pb
0.282609 0.630435 0.392857 Pb
0.239130 0.456522 0.392857 Pb
0.195652 0.282609 0.392857 Pb
0.152174 0.108696 0.392857 Pb
0.108696 0.934783 0.392857 Pb
0.065217 0.760870 0.392857 Pb
0.021739 0.586957 0.392857 Pb
0.978261 0.413043 0.392857 Pb
0.934783 0.239130 0.392857 Pb
0.891304 0.065217 0.392857 Pb
0.956522 0.826087 0.321429 Pb
0.913043 0.652174 0.321429 Pb
0.869565 0.478261 0.321429 Pb
0.826087 0.304348 0.321429 Pb
0.782609 0.130435 0.321429 Pb
0.739130 0.956522 0.321429 Pb
0.695652 0.782609 0.321429 Pb
0.652174 0.608696 0.321429 Pb
0.608696 0.434783 0.321429 Pb
0.565217 0.260870 0.321429 Pb
0.521739 0.086957 0.321429 Pb
0.478261 0.913043 0.321429 Pb
0.434783 0.739130 0.321429 Pb
0.391304 0.565217 0.321429 Pb
0.347826 0.391304 0.321429 Pb
0.304348 0.217391 0.321429 Pb
0.260870 0.043478 0.321429 Pb
0.217391 0.869565 0.321429 Pb
0.173913 0.695652 0.321429 Pb
0.130435 0.521739 0.321429 Pb
0.086957 0.347826 0.321429 Pb
0.043478 0.173913 0.321429 Pb
0.000000 0.000000 0.321429 Pb
0.826087 0.804348 0.321429 Pb
0.782609 0.630435 0.321429 Pb
0.739130 0.456522 0.321429 Pb
0.695652 0.282609 0.321429 Pb
0.652174 0.108696 0.321429 Pb
0.608696 0.934783 0.321429 Pb
0.565217 0.760870 0.321429 Pb
0.521739 0.586957 0.321429 Pb
0.478261 0.413043 0.321429 Pb
0.434783 0.239130 0.321429 Pb
0.391304 0.065217 0.321429 Pb
0.347826 0.891304 0.321429 Pb
0.304348 0.717391 0.321429 Pb
0.260870 0.543478 0.321429 Pb
0.217391 0.369565 0.321429 Pb
0.173913 0.195652 0.321429 Pb
0.130435 0.021739 0.321429 Pb
0.086957 0.847826 0.321429 Pb
0.043478 0.673913 0.321429 Pb
1.000000 0.500000 0.321429 Pb
0.956522 0.326087 0.321429 Pb
0.913043 0.152174 0.321429 Pb
0.869565 0.978261 0.321429 Pb
0.934783 0.739130 0.250000 Pb
0.891304 0.565217 0.250000 Pb
0.847826 0.391304 0.250000 Pb
0.804348 0.217391 0.250000 Pb
0.760870 0.043478 0.250000 Pb
0.717391 0.869565 0.250000 Pb
0.673913 0.695652 0.250000 Pb
0.630435 0.521739 0.250000 Pb
0.586957 0.347826 0.250000 Pb
0.543478 0.173913 0.250000 Pb
0.500000 1.000000 0.250000 Pb
0.456522 0.826087 0.250000 Pb
0.413043 0.652174 0.250000 Pb
0.369565 0.478261 0.250000 Pb
0.326087 0.304348 0.250000 Pb
0.282609 0.130435 0.250000 Pb
0.239130 0.956522 0.250000 Pb
0.195652 0.782609 0.250000 Pb
0.152174 0.608696 0.250000 Pb
0.108696 0.434783 0.250000 Pb
0.065217 0.260870 0.250000 Pb
0.021739 0.086957 0.250000 Pb
0.978261 0.913043 0.250000 Pb
0.847826 0.891304 0.250000 Pb
0.804348 0.717391 0.250000 Pb
0.760870 0.543478 0.250000 Pb
0.717391 0.369565 0.250000 Pb
0.673913 0.195652 0.250000 Pb
0.630435 0.021739 0.250000 Pb
0.586957 0.847826 0.250000 Pb
0.543478 0.673913 0.250000 Pb
0.500000 0.500000 0.250000 Pb
0.456522 0.326087 0.250000 Pb
0.413043 0.152174 0.250000 Pb
0.369565 0.978261 0.250000 Pb
0.326087 0.804348 0.250000 Pb
0.282609 0.630435 0.250000 Pb
0.239130 0.456522 0.250000 Pb
0.195652 0.282609 0.250000 Pb
0.152174 0.108696 0.250000 Pb
0.108696 0.934783 0.250000 Pb
0.065217 0.760870 0.250000 Pb
0.021739 0.586957 0.250000 Pb
0.978261 0.413043 0.250000 Pb
0.934783 0.239130 0.250000 Pb
0.891304 0.065217 0.250000 Pb
0.847826 0.891304 0.750000 S
0.804348 0.717391 0.750000 S
0.760870 0.543478 0.750000 S
0.717391 0.369565 0.750000 S
0.673913 0.195652 0.750000 S
0.630435 0.021739 0.750000 S
0.586957 0.847826 0.750000 S
0.543478 0.673913 0.750000 S
0.500000 0.500000 0.750000 S
0.456522 0.326087 0.750000 S
0.413043 0.152174 0.750000 S
0.369565 0.978261 0.750000 S
0.326087 0.804348 0.750000 S
0.282609 0.630435 0.750000 S
0.239130 0.456522 0.750000 S
0.195652 0.282609 0.750000 S
0.152174 0.108696 0.750000 S
0.108696 0.934783 0.750000 S
0.065217 0.760870 0.750000 S
0.021739 0.586957 0.750000 S
0.978261 0.413043 0.750000 S
0.934783 0.239130 0.750000 S
0.891304 0.065217 0.750000 S
0.934783 0.739130 0.750000 S
0.891304 0.565217 0.750000 S
0.847826 0.391304 0.750000 S
0.804348 0.217391 0.750000 S
0.760870 0.043478 0.750000 S
0.717391 0.869565 0.750000 S
0.673913 0.695652 0.750000 S
0.630435 0.521739 0.750000 S
0.586957 0.347826 0.750000 S
0.543478 0.173913 0.750000 S
0.500000 1.000000 0.750000 S
0.456522 0.826087 0.750000 S
0.413043 0.652174 0.750000 S
0.369565 0.478261 0.750000 S
0.326087 0.304348 0.750000 S
0.282609 0.130435 0.750000 S
0.239130 0.956522 0.750000 S
0.195652 0.782609 0.750000 S
0.152174 0.608696 0.750000 S
0.108696 0.434783 0.750000 S
0.065217 0.260870 0.750000 S
0.021739 0.086957 0.750000 S
0.978261 0.913043 0.750000 S
0.826087 0.804348 0.678571 S
0.782609 0.630435 0.678571 S
0.739130 0.456522 0.678571 S
0.695652 0.282609 0.678571 S
0.652174 0.108696 0.678571 S
0.608696 0.934783 0.678571 S
0.565217 0.760870 0.678571 S
0.521739 0.586957 0.678571 S
0.478261 0.413043 0.678571 S
0.434783 0.239130 0.678571 S
0.391304 0.065217 0.678571 S
0.347826 0.891304 0.678571 S
0.304348 0.717391 0.678571 S
0.260870 0.543478 0.678571 S
0.217391 0.369565 0.678571 S
0.173913 0.195652 0.678571 S
0.130435 0.021739 0.678571 S
0.086957 0.847826 0.678571 S
0.043478 0.673913 0.678571 S
1.000000 0.500000 0.678571 S
0.956522 0.326087 0.678571 S
0.913043 0.152174 0.678571 S
0.869565 0.978261 0.678571 S
0.956522 0.826087 0.678571 S
0.913043 0.652174 0.678571 S
0.869565 0.478261 0.678571 S
0.826087 0.304348 0.678571 S
0.782609 0.130435 0.678571 S
0.739130 0.956522 0.678571 S
0.695652 0.782609 0.678571 S
0.652174 0.608696 0.678571 S
0.608696 0.434783 0.678571 S
0.565217 0.260870 0.678571 S
0.521739 0.086957 0.678571 S
0.478261 0.913043 0.678571 S
0.434783 0.739130 0.678571 S
0.391304 0.565217 0.678571 S
0.347826 0.391304 0.678571 S
0.304348 0.217391 0.678571 S
0.260870 0.043478 0.678571 S
0.217391 0.869565 0.678571 S
0.173913 0.695652 0.678571 S
0.130435 0.521739 0.678571 S
0.086957 0.347826 0.678571 S
0.043478 0.173913 0.678571 S
0.000000 0.000000 0.678571 S
0.847826 0.891304 0.607143 S
0.804348 0.717391 0.607143 S
0.760870 0.543478 0.607143 S
0.717391 0.369565 0.607143 S
0.673913 0.195652 0.607143 S
0.630435 0.021739 0.607143 S
0.586957 0.847826 0.607143 S
0.543478 0.673913 0.607143 S
0.500000 0.500000 0.607143 S
0.456522 0.326087 0.607143 S
0.413043 0.152174 0.607143 S
0.369565 0.978261 0.607143 S
0.326087 0.804348 0.607143 S
0.282609 0.630435 0.607143 S
0.239130 0.456522 0.607143 S
0.195652 0.282609 0.607143 S
0.152174 0.108696 0.607143 S
0.108696 0.934783 0.607143 S
0.065217 0.760870 0.607143 S
0.021739 0.586957 0.607143 S
0.978261 0.413043 0.607143 S
0.934783 0.239130 0.607143 S
0.891304 0.065217 0.607143 S
0.934783 0.739130 0.607143 S
0.891304 0.565217 0.607143 S
0.847826 0.391304 0.607143 S
0.804348 0.217391 0.607143 S
0.760870 0.043478 0.607143 S
0.717391 0.869565 0.607143 S
0.673913 0.695652 0.607143 S
0.630435 0.521739 0.607143 S
0.586957 0.347826 0.607143 S
0.543478 0.173913 0.607143 S
0.500000 1.000000 0.607143 S
0.456522 0.826087 0.607143 S
0.413043 0.652174 0.607143 S
0.369565 0.478261 0.607143 S
0.326087 0.304348 0.607143 S
0.282609 0.130435 0.607143 S
0.239130 0.956522 0.607143 S
0.195652 0.782609 0.607143 S
0.152174 0.608696 0.607143 S
0.108696 0.434783 0.607143 S
0.065217 0.260870 0.607143 S
0.021739 0.086957 0.607143 S
0.978261 0.913043 0.607143 S
0.826087 0.804348 0.535714 S
0.782609 0.630435 0.535714 S
0.739130 0.456522 0.535714 S
0.695652 0.282609 0.535714 S
0.652174 0.108696 0.535714 S
0.608696 0.934783 0.535714 S
0.565217 0.760870 0.535714 S
0.521739 0.586957 0.535714 S
0.478261 0.413043 0.535714 S
0.434783 0.239130 0.535714 S
0.391304 0.065217 0.535714 S
0.347826 0.891304 0.535714 S
0.304348 0.717391 0.535714 S
0.260870 0.543478 0.535714 S
0.217391 0.369565 0.535714 S
0.173913 0.195652 0.535714 S
0.130435 0.021739 0.535714 S
0.086957 0.847826 0.535714 S
0.043478 0.673913 0.535714 S
1.000000 0.500000 0.535714 S
0.956522 0.326087 0.535714 S
0.913043 0.152174 0.535714 S
0.869565 0.978261 0.535714 S
0.956522 0.826087 0.535714 S
0.913043 0.652174 0.535714 S
0.869565 0.478261 0.535714 S
0.826087 0.304348 0.535714 S
0.782609 0.130435 0.535714 S
0.739130 0.956522 0.535714 S
0.695652 0.782609 0.535714 S
0.652174 0.608696 0.535714 S
0.608696 0.434783 0.535714 S
0.565217 0.260870 0.535714 S
0.521739 0.086957 0.535714 S
0.478261 0.913043 0.535714 S
0.434783 0.739130 0.535714 S
0.391304 0.565217 0.535714 S
0.347826 0.391304 0.535714 S
0.304348 0.217391 0.535714 S
0.260870 0.043478 0.535714 S
0.217391 0.869565 0.535714 S
0.173913 0.695652 0.535714 S
0.130435 0.521739 0.535714 S
0.086957 0.347826 0.535714 S
0.043478 0.173913 0.535714 S
0.000000 0.000000 0.535714 S
0.847826 0.891304 0.464286 S
0.804348 0.717391 0.464286 S
0.760870 0.543478 0.464286 S
0.717391 0.369565 0.464286 S
0.673913 0.195652 0.464286 S
0.630435 0.021739 0.464286 S
0.586957 0.847826 0.464286 S
0.543478 0.673913 0.464286 S
0.500000 0.500000 0.464286 S
0.456522 0.326087 0.464286 S
0.413043 0.152174 0.464286 S
0.369565 0.978261 0.464286 S
0.326087 0.804348 0.464286 S
0.282609 0.630435 0.464286 S
0.239130 0.456522 0.464286 S
0.195652 0.282609 0.464286 S
0.152174 0.108696 0.464286 S
0.108696 0.934783 0.464286 S
0.065217 0.760870 0.464286 S
0.021739 0.586957 0.464286 S
0.978261 0.413043 0.464286 S
0.934783 0.239130 0.464286 S
0.891304 0.065217 0.464286 S
0.934783 0.739130 0.464286 S
0.891304 0.565217 0.464286 S
0.847826 0.391304 0.464286 S
0.804348 0.217391 0.464286 S
0.760870 0.043478 0.464286 S
0.717391 0.869565 0.464286 S
0.673913 0.695652 0.464286 S
0.630435 0.521739 0.464286 S
0.586957 0.347826 0.464286 S
0.543478 0.173913 0.464286 S
0.500000 1.000000 0.464286 S
0.456522 0.826087 0.464286 S
0.413043 0.652174 0.464286 S
0.369565 0.478261 0.464286 S
0.326087 0.304348 0.464286 S
0.282609 0.130435 0.464286 S
0.239130 0.956522 0.464286 S
0.195652 0.782609 0.464286 S
0.152174 0.608696 0.464286 S
0.108696 0.434783 0.464286 S
0.065217 0.260870 0.464286 S
0.021739 0.086957 0.464286 S
0.978261 0.913043 0.464286 S
0.826087 0.804348 0.392857 S
0.782609 0.630435 0.392857 S
0.739130 0.456522 0.392857 S
0.695652 0.282609 0.392857 S
0.652174 0.108696 0.392857 S
0.608696 0.934783 0.392857 S
0.565217 0.760870 0.392857 S
0.521739 0.586957 0.392857 S
0.478261 0.413043 0.392857 S
0.434783 0.239130 0.392857 S
0.391304 0.065217 0.392857 S
0.347826 0.891304 0.392857 S
0.304348 0.717391 0.392857 S
0.260870 0.543478 0.392857 S
0.217391 0.369565 0.392857 S
0.173913 0.195652 0.392857 S
0.130435 0.021739 0.392857 S
0.086957 0.847826 0.392857 S
0.043478 0.673913 0.392857 S
1.000000 0.500000 0.392857 S
0.956522 0.326087 0.392857 S
0.913043 0.152174 0.392857 S
0.869565 0.978261 0.392857 S
0.956522 0.826087 0.392857 S
0.913043 0.652174 0.392857 S
0.869565 0.478261 0.392857 S
0.826087 0.304348 0.392857 S
0.782609 0.130435 0.392857 S
0.739130 0.956522 0.392857 S
0.695652 0.782609 0.392857 S
0.652174 0.608696 0.392857 S
0.608696 0.434783 0.392857 S
0.565217 0.260870 0.392857 S
0.521739 0.086957 0.392857 S
0.478261 0.913043 0.392857 S
0.434783 0.739130 0.392857 S
0.391304 0.565217 0.392857 S
0.347826 0.391304 0.392857 S
0.304348 0.217391 0.392857 S
0.260870 0.043478 0.392857 S
0.217391 0.869565 0.392857 S
0.173913 0.695652 0.392857 S
0.130435 0.521739 0.392857 S
0.086957 0.347826 0.392857 S
0.043478 0.173913 0.392857 S
0.000000 0.000000 0.392857 S
0.847826 0.891304 0.321429 S
0.804348 0.717391 0.321429 S
0.760870 0.543478 0.321429 S
0.717391 0.369565 0.321429 S
0.673913 0.195652 0.321429 S
0.630435 0.021739 0.321429 S
0.586957 0.847826 0.321429 S
0.543478 0.673913 0.321429 S
0.500000 0.500000 0.321429 S
0.456522 0.326087 0.321429 S
0.413043 0.152174 0.321429 S
0.369565 0.978261 0.321429 S
0.326087 0.804348 0.321429 S
0.282609 0.630435 0.321429 S
0.239130 0.456522 0.321429 S
0.195652 0.282609 0.321429 S
0.152174 0.108696 0.321429 S
0.108696 0.934783 0.321429 S
0.065217 0.760870 0.321429 S
0.021739 0.586957 0.321429 S
0.978261 0.413043 0.321429 S
0.934783 0.239130 0.321429 S
0.891304 0.065217 0.321429 S
0.934783 0.739130 0.321429 S
0.891304 0.565217 0.321429 S
0.847826 0.391304 0.321429 S
0.804348 0.217391 0.321429 S
0.760870 0.043478 0.321429 S
0.717391 0.869565 0.321429 S
0.673913 0.695652 0.321429 S
0.630435 0.521739 0.321429 S
0.586957 0.347826 0.321429 S
0.543478 0.173913 0.321429 S
0.500000 1.000000 0.321429 S
0.456522 0.826087 0.321429 S
0.413043 0.652174 0.321429 S
0.369565 0.478261 0.321429 S
0.326087 0.304348 0.321429 S
0.282609 0.130435 0.321429 S
0.239130 0.956522 0.321429 S
0.195652 0.782609 0.321429 S
0.152174 0.608696 0.321429 S
0.108696 0.434783 0.321429 S
0.065217 0.260870 0.321429 S
0.021739 0.086957 0.321429 S
0.978261 0.913043 0.321429 S
0.826087 0.804348 0.250000 S
0.782609 0.630435 0.250000 S
0.739130 0.456522 0.250000 S
0.695652 0.282609 0.250000 S
0.652174 0.108696 0.250000 S
0.608696 0.934783 0.250000 S
0.565217 0.760870 0.250000 S
0.521739 0.586957 0.250000 S
0.478261 0.413043 0.250000 S
0.434783 0.239130 0.250000 S
0.391304 0.065217 0.250000 S
0.347826 0.891304 0.250000 S
0.304348 0.717391 0.250000 S
0.260870 0.543478 0.250000 S
0.217391 0.369565 0.250000 S
0.173913 0.195652 0.250000 S
0.130435 0.021739 0.250000 S
0.086957 0.847826 0.250000 S
0.043478 0.673913 0.250000 S
1.000000 0.500000 0.250000 S
0.956522 0.326087 0.250000 S
0.913043 0.152174 0.250000 S
0.869565 0.978261 0.250000 S
0.956522 0.826087 0.250000 S
0.913043 0.652174 0.250000 S
0.869565 0.478261 0.250000 S
0.826087 0.304348 0.250000 S
0.782609 0.130435 0.250000 S
0.739130 0.956522 0.250000 S
0.695652 0.782609 0.250000 S
0.652174 0.608696 0.250000 S
0.608696 0.434783 0.250000 S
0.565217 0.260870 0.250000 S
0.521739 0.086957 0.250000 S
0.478261 0.913043 0.250000 S
0.434783 0.739130 0.250000 S
0.391304 0.565217 0.250000 S
0.347826 0.391304 0.250000 S
0.304348 0.217391 0.250000 S
0.260870 0.043478 0.250000 S
0.217391 0.869565 0.250000 S
0.173913 0.695652 0.250000 S
0.130435 0.521739 0.250000 S
0.086957 0.347826 0.250000 S
0.043478 0.173913 0.250000 S
0.000000 0.000000 0.250000 S
