H6 Pb1 C4 O4
1.0
13.000000 0.000000 0.000000
0.000000 13.000000 0.000000
0.000000 0.000000 13.000000
H Pb C O
6 1 4 4
direct
0.212919 0.625834 0.556369 H
0.212376 0.556019 0.673626 H
0.212376 0.489417 0.552589 H
0.731224 0.446129 0.395457 H
0.602448 0.467235 0.435395 H
0.669760 0.352907 0.473917 H
0.480904 0.486615 0.460042 Pb
0.241019 0.556339 0.594608 C
0.355906 0.554195 0.595788 C
0.676641 0.435259 0.458576 C
0.713101 0.488722 0.553535 C
0.398463 0.636838 0.550313 O
0.409306 0.486589 0.632988 O
0.803428 0.537495 0.540452 O
0.668722 0.490446 0.636200 O
