Pb4 S4
1.0
6.003229 0.000000 0.000000
0.000000 6.003229 0.000000
0.000000 0.000000 6.003229
Pb S
4 4
direct
0.000000 0.000000 0.000000 Pb
0.000000 0.500000 0.500000 Pb
0.500000 0.000000 0.500000 Pb
0.500000 0.500000 0.000000 Pb
0.000000 0.500000 0.000000 S
0.000000 0.000000 0.500000 S
0.500000 0.500000 0.500000 S
0.500000 0.000000 0.000000 S
