Zr8 Ga1 N1
1.0
3.234480 -0.000000 0.000000
-1.617240 2.801141 -0.000000
0.000000 -0.000000 39.642644
Zr Ga N
8 1 1
direct
0.666667 0.333333 0.000000 Zr
0.000000 0.000000 0.063577 Zr
0.666667 0.333333 0.127155 Zr
0.000000 0.000000 0.191359 Zr
0.666667 0.333333 0.254894 Zr
0.000000 0.000000 0.319462 Zr
0.666667 0.333333 0.382455 Zr
0.000000 0.000000 0.448730 Zr
0.666667 1.333333 0.504225 Ga
0.333333 0.666667 0.508800 N
