Cd2 Sb4 Se6 Br4
1.0
-3.861373 0.000000 0.000000
0.000000 -12.224439 -1.123997
0.000000 0.000000 37.333214
Cd Sb Se Br
2 4 6 4
direct
0.750000 0.955598 0.126091 Cd
0.250000 0.036976 0.220858 Cd
0.250000 0.003409 0.030036 Sb
0.750000 0.132491 0.454123 Sb
0.750000 0.009924 0.319104 Sb
0.250000 0.874117 0.409881 Sb
0.750000 0.095724 0.072478 Se
0.250000 0.152593 0.987814 Se
0.250000 0.904896 0.281152 Se
0.750000 0.939695 0.470459 Se
0.250000 0.082284 0.395539 Se
0.750000 0.827615 0.357280 Se
0.250000 0.120353 0.157579 Br
0.250000 0.812876 0.103071 Br
0.750000 0.882716 0.196702 Br
0.750000 0.168732 0.259651 Br
