Bi2 Te2 Cl2 plus 4.2662086121
1.0
4.302993 0.000000 0.000000 
-2.151496 3.726501 0.000000 
0.000000 0.000000 18.4078536121 
Cl Te Bi 
1 1 1 
direct
0.000000 0.000000 0.0156137048369
0.666667 0.333333 0.200744121664
0.333333 0.666667 0.104842447982
