Cu1
1.0
2.250000 -2.250000 0.000000
2.250000 0.000000 2.250000
0.000000 -2.250000 2.250000
Cu
1
direct
0.000000 0.000000 0.000000 Cu
