Cu
3.6
1.000000 0.000000 0.000000
0.000000 1.000000 0.000000
0.000000 0.000000 1.000000
Cu
4
direct
0.000000 0.000000 0.000000 Cu
0.500000 0.500000 0.000000 Cu
0.500000 0.000000 0.500000 Cu
0.000000 0.500000 0.500000 Cu
