Ga2 N2
1.0
3.216290 0.000000 0.000000
-1.608145 2.785389 0.000000
0.000000 0.000000 5.239962
N Ga
2 2
direct
0.666667 0.333333 0.875880 N
0.333333 0.666667 0.375880 N
0.666667 0.333333 0.499120 Ga
0.333333 0.666667 0.999120 Ga
