Bi1
1.0
4.277438 0.0 0.0 
-2.138719 3.70437 0.0 
0.0 0.0 23.418628 
Cl Te Bi 
1 1 1 
direct
0.000000 0.000000 0.0
0.666667 0.333333 0.145979
0.333333 0.666667 0.069554
